50
3 1 6
3 2 8
4 0 1
4 2 9
4 3 5
5 0 5
5 1 6
6 3 8
7 0 3
7 1 1
7 2 10
7 3 6
8 2 3
8 4 4
8 6 7
8 7 2
9 0 2
9 7 9
9 8 7
10 1 10
10 3 6
10 5 9
10 6 10
10 9 3
11 0 2
11 1 9
11 2 3
11 4 1
11 5 9
11 6 2
11 10 8
12 0 2
12 1 5
12 2 4
12 9 9
12 11 7
13 2 9
13 3 6
13 4 1
13 5 5
13 7 8
13 8 10
13 11 2
14 3 6
14 9 10
14 10 7
14 11 1
14 12 2
14 13 7
15 1 5
15 3 2
15 4 10
15 6 3
15 10 10
15 11 6
15 13 6
16 3 4
16 4 10
16 5 6
16 7 1
16 8 7
16 11 10
16 13 1
16 15 4
17 1 2
17 2 7
17 4 5
17 5 8
17 6 9
17 7 2
17 8 8
17 9 9
17 10 7
17 11 9
17 12 1
17 14 2
17 16 6
18 0 3
18 1 6
18 3 6
18 4 10
18 6 9
18 8 1
18 9 5
18 11 1
18 12 1
18 15 3
18 16 3
19 0 3
19 2 6
19 3 3
19 4 4
19 5 2
19 6 3
19 7 2
19 8 3
19 10 9
19 12 10
19 13 2
19 14 2
19 16 9
19 18 3
20 2 8
20 3 2
20 4 8
20 5 2
20 7 4
20 10 9
20 12 5
20 14 10
20 16 8
20 17 10
20 18 3
21 1 8
21 3 5
21 4 4
21 5 6
21 7 7
21 8 5
21 13 4
21 16 1
21 17 7
22 2 10
22 3 4
22 4 9
22 5 1
22 7 7
22 8 5
22 9 9
22 10 8
22 12 3
22 14 1
22 15 2
22 16 9
22 17 5
22 20 6
22 21 8
23 0 3
23 1 6
23 2 6
23 4 8
23 7 10
23 10 10
23 11 1
23 12 2
24 3 2
24 5 5
24 6 4
24 8 10
24 11 2
24 12 9
24 13 5
24 14 3
24 16 8
24 17 3
24 19 7
24 20 4
25 0 8
25 2 9
25 10 5
25 11 8
25 14 10
25 15 5
25 17 4
25 21 3
25 22 1
25 23 9
25 24 8
26 1 9
26 4 5
26 5 8
26 6 1
26 9 9
26 15 3
26 16 4
26 19 3
26 20 4
26 21 5
26 22 7
26 24 7
26 25 10
27 0 1
27 1 2
27 3 5
27 4 6
27 6 3
27 9 5
27 12 1
27 14 2
27 15 1
27 16 10
27 20 5
27 21 1
27 23 10
27 26 3
28 1 1
28 2 5
28 3 8
28 5 8
28 6 5
28 14 2
28 20 5
28 21 9
28 22 5
28 23 3
28 25 10
28 26 6
29 0 1
29 1 6
29 2 10
29 4 5
29 6 9
29 8 3
29 9 1
29 10 6
29 11 9
29 13 6
29 16 5
29 18 9
29 23 1
29 24 3
29 27 2
29 28 6
30 0 3
30 1 4
30 2 2
30 3 8
30 6 3
30 12 8
30 13 3
30 15 3
30 17 5
30 18 4
30 19 6
30 20 6
30 24 6
30 26 8
31 0 9
31 1 8
31 4 6
31 5 6
31 6 8
31 9 1
31 10 8
31 12 7
31 13 6
31 14 4
31 16 5
31 17 2
31 18 3
31 19 7
31 24 8
31 29 10
32 1 1
32 3 5
32 4 10
32 7 2
32 8 6
32 9 2
32 11 2
32 17 8
32 18 3
32 20 6
32 21 9
32 23 1
32 24 1
32 28 10
32 30 5
32 31 7
33 0 5
33 1 8
33 2 5
33 6 1
33 8 2
33 9 3
33 10 1
33 13 2
33 16 1
33 17 9
33 18 8
33 20 9
33 23 7
33 24 1
33 28 2
33 29 6
33 30 1
34 1 10
34 4 3
34 10 2
34 14 2
34 15 10
34 16 2
34 17 6
34 20 1
34 22 3
34 24 9
34 25 3
34 27 5
34 28 9
34 29 5
34 33 8
35 4 8
35 7 6
35 9 2
35 10 9
35 12 2
35 14 10
35 16 7
35 18 5
35 21 7
35 24 10
35 27 9
35 28 10
35 30 2
35 32 1
36 3 8
36 15 3
36 17 9
36 18 9
36 19 3
36 21 1
36 24 5
36 25 1
36 26 6
36 27 4
36 28 2
36 29 4
36 33 6
36 34 1
37 1 2
37 3 5
37 4 9
37 7 9
37 8 5
37 9 3
37 12 4
37 14 6
37 20 1
37 24 9
37 30 3
37 31 4
37 32 1
37 36 6
38 3 5
38 5 8
38 6 5
38 8 5
38 13 9
38 17 5
38 18 7
38 20 7
38 21 1
38 22 9
38 25 6
38 26 5
38 28 8
38 29 6
38 30 9
38 31 5
38 32 8
38 33 10
38 35 10
38 37 3
39 0 5
39 1 4
39 3 7
39 4 3
39 5 8
39 6 7
39 7 2
39 8 6
39 9 8
39 10 10
39 13 9
39 14 1
39 17 2
39 18 8
39 21 8
39 22 3
39 23 8
39 25 6
39 26 2
39 27 5
39 29 7
39 32 6
39 33 3
39 35 9
39 37 10
39 38 1
40 0 8
40 1 6
40 4 5
40 6 1
40 7 7
40 9 8
40 11 7
40 13 4
40 14 5
40 15 8
40 16 3
40 17 8
40 19 7
40 21 2
40 22 8
40 26 6
40 31 7
40 32 2
40 38 6
41 0 10
41 2 5
41 3 4
41 4 8
41 5 9
41 6 3
41 8 6
41 10 2
41 13 3
41 14 1
41 16 3
41 19 2
41 20 8
41 21 10
41 22 9
41 23 3
41 24 3
41 26 9
41 30 6
41 31 4
41 34 7
41 39 8
42 1 8
42 4 2
42 5 3
42 8 9
42 9 9
42 10 9
42 11 5
42 13 3
42 19 4
42 24 5
42 25 6
42 26 1
42 28 1
42 29 7
42 30 5
42 31 3
42 32 5
42 33 8
42 35 1
42 37 7
42 38 4
42 40 9
43 0 8
43 1 3
43 4 6
43 9 6
43 10 6
43 12 1
43 15 7
43 16 5
43 18 10
43 19 3
43 20 10
43 22 4
43 25 8
43 29 7
43 30 2
43 31 5
43 32 8
43 34 7
43 35 2
43 36 5
43 41 8
44 1 9
44 2 5
44 3 10
44 4 7
44 6 10
44 7 7
44 9 4
44 10 2
44 13 2
44 16 6
44 18 10
44 23 10
44 24 3
44 25 6
44 27 7
44 29 8
44 36 10
44 37 3
44 38 9
45 1 9
45 7 3
45 12 2
45 13 1
45 14 6
45 15 6
45 16 3
45 17 4
45 18 9
45 19 10
45 23 9
45 25 2
45 26 1
45 27 8
45 29 4
45 32 1
45 33 2
45 34 4
45 35 5
45 36 8
45 38 1
45 40 2
45 42 1
45 44 8
46 0 2
46 1 6
46 2 5
46 3 8
46 4 10
46 11 10
46 12 7
46 14 4
46 16 5
46 17 4
46 19 3
46 20 4
46 23 4
46 24 2
46 25 4
46 27 2
46 28 1
46 32 9
46 33 4
46 34 1
46 35 2
46 38 1
46 40 9
46 41 2
46 44 5
47 1 8
47 2 4
47 3 8
47 4 1
47 8 6
47 12 9
47 15 10
47 17 1
47 18 10
47 22 4
47 23 1
47 28 9
47 31 10
47 32 1
47 33 9
47 35 5
47 36 2
47 37 3
47 39 4
47 42 4
47 43 4
47 45 2
48 0 1
48 2 4
48 3 7
48 4 6
48 5 8
48 7 6
48 8 4
48 11 1
48 14 7
48 15 3
48 17 2
48 19 6
48 21 4
48 22 9
48 26 1
48 27 6
48 29 4
48 30 1
48 33 8
48 37 8
48 40 1
48 41 3
48 46 10
49 1 9
49 3 8
49 4 10
49 7 7
49 8 5
49 9 1
49 10 2
49 11 2
49 13 4
49 15 6
49 16 1
49 17 6
49 18 7
49 21 4
49 22 1
49 23 9
49 24 1
49 25 7
49 26 2
49 27 10
49 28 2
49 29 10
49 30 5
49 31 7
49 33 2
49 35 2
49 37 9
49 38 7
49 39 1
49 40 10
49 41 7
49 42 3
49 43 7
49 44 5
49 47 1
49 48 8
